!noautostart
!r2scan-3c
!def2-svp
!sp
%pal
    nprocs 4
end

%output
    jsonpropfile True
    jsongbwfile True
end

* xyz 0 1
O             0.0000000000000000             0.0000000000000000             0.3975393300000000
H             0.0000000000000000             0.7632390000000000            -0.1987696700000000
H             0.0000000000000000            -0.7632390000000000            -0.1987696700000000
*
