!noautostart
!r2scan-3c
!def2-svp
!sp
%pal
    nprocs 1
end

%output
    jsonpropfile True
    jsongbwfile True
end

* xyz 0 1
O            -0.0000000000000000            -0.0000000000914800             0.3790493263001100
H            -0.0000000000000000             0.7725089519330900            -0.1895246681858000
H             0.0000000000000000            -0.7725089518416000            -0.1895246681143100
*
